<number of tasks>
20

<cycle time>
1000

<order strength>
0,511


<task times>
1 296
2 192
3 138
4 52
5 274
6 220
7 67
8 148
9 280
10 244
11 229
12 214
13 95
14 124
15 191
16 71
17 108
18 192
19 231
20 166

<precedence relations>
1,6
2,7
3,8
4,7
4,8
5,8
6,9
7,10
8,10
9,11
10,12
10,13
10,14
11,17
12,15
13,16
14,17
15,18
16,19
17,20

<end>
